sat
(= |goto_symex::&92;guard#1| false)
(= |goto_symex::&92;guard#2| false)
(= |goto_symex::&92;guard#3| false)
(= |goto_symex::&92;guard#4| false)
(= |goto_symex::&92;guard#5| false)
(= |goto_symex::&92;guard#6| false)
(= |goto_symex::&92;guard#7| false)
(= |goto_symex::&92;guard#8| false)
(= |goto_symex::&92;guard#9| false)
(= |goto_symex::&92;guard#10| false)
(= |goto_symex::&92;guard#11| false)
(= |goto_symex::&92;guard#12| false)
(= |goto_symex::&92;guard#13| false)
(= |goto_symex::&92;guard#14| false)
(= |goto_symex::&92;guard#15| false)
(= |goto_symex::&92;guard#16| false)
(= |goto_symex::&92;guard#17| false)
(= |goto_symex::&92;guard#18| false)
(= |goto_symex::&92;guard#19| false)
(= |goto_symex::&92;guard#20| false)
(= |goto_symex::&92;guard#21| false)
(= |goto_symex::&92;guard#22| false)
(= |goto_symex::&92;guard#23| false)
(= |goto_symex::&92;guard#24| false)
(= |goto_symex::&92;guard#25| false)
(= |goto_symex::&92;guard#26| false)
(= |goto_symex::&92;guard#27| false)
(= |goto_symex::&92;guard#28| false)
(= |goto_symex::&92;guard#29| false)
(= |goto_symex::&92;guard#30| false)
(= |goto_symex::&92;guard#31| false)
(= |goto_symex::&92;guard#32| false)
(= |goto_symex::&92;guard#33| false)
(= |goto_symex::&92;guard#34| false)
(= |goto_symex::&92;guard#35| false)
(= |goto_symex::&92;guard#36| false)
(= |goto_symex::&92;guard#37| false)
(= |goto_symex::&92;guard#38| false)
(= |goto_symex::&92;guard#39| false)
(= |goto_symex::&92;guard#40| false)
(= |goto_symex::&92;guard#41| false)
(= |goto_symex::&92;guard#42| false)
(= |goto_symex::&92;guard#43| false)
(= |goto_symex::&92;guard#44| false)
(= |goto_symex::&92;guard#45| false)
(= |goto_symex::&92;guard#46| false)
(= |goto_symex::&92;guard#47| false)
(= |goto_symex::&92;guard#48| false)
(= |goto_symex::&92;guard#49| false)
(= |goto_symex::&92;guard#50| false)
(= |goto_symex::&92;guard#51| false)
(= |goto_symex::&92;guard#52| false)
(= |goto_symex::&92;guard#53| false)
(= |goto_symex::&92;guard#54| false)
(= |goto_symex::&92;guard#55| false)
(= |goto_symex::&92;guard#56| false)
(= |goto_symex::&92;guard#57| false)
(= |goto_symex::&92;guard#58| false)
(= |goto_symex::&92;guard#59| false)
(= |goto_symex::&92;guard#60| false)
(= |goto_symex::&92;guard#61| false)
(= |goto_symex::&92;guard#62| false)
(= |goto_symex::&92;guard#63| false)
(= |goto_symex::&92;guard#64| false)
(= |goto_symex::&92;guard#65| false)
(= |goto_symex::&92;guard#66| false)
(= |goto_symex::&92;guard#67| false)
(= |goto_symex::&92;guard#68| false)
(= |goto_symex::&92;guard#69| false)
(= |goto_symex::&92;guard#70| false)
(= |goto_symex::&92;guard#71| false)
(= |goto_symex::&92;guard#72| false)
(= |goto_symex::&92;guard#73| false)
(= |goto_symex::&92;guard#74| false)
(= |goto_symex::&92;guard#75| false)
(= |goto_symex::&92;guard#76| false)
(= |goto_symex::&92;guard#77| false)
(= |goto_symex::&92;guard#78| false)
(= |goto_symex::&92;guard#79| false)
(= |goto_symex::&92;guard#80| false)
(= |goto_symex::&92;guard#81| false)
(= |goto_symex::&92;guard#82| false)
(= |goto_symex::&92;guard#83| false)
(= |goto_symex::&92;guard#84| false)
(= |goto_symex::&92;guard#85| false)
(= |goto_symex::&92;guard#86| false)
(= |goto_symex::&92;guard#87| false)
(= |goto_symex::&92;guard#88| false)
(= |goto_symex::&92;guard#89| false)
(= |goto_symex::&92;guard#90| false)
(= |goto_symex::&92;guard#91| false)
(= |goto_symex::&92;guard#92| false)
(= |goto_symex::&92;guard#93| false)
(= |goto_symex::&92;guard#94| false)
(= |goto_symex::&92;guard#95| false)
(= |goto_symex::&92;guard#96| false)
(= |goto_symex::&92;guard#97| false)
(= |goto_symex::&92;guard#98| false)
(= |goto_symex::&92;guard#99| false)
(= |goto_symex::&92;guard#100| false)
(= |goto_symex::&92;guard#101| false)
(= |goto_symex::&92;guard#102| false)
(= |goto_symex::&92;guard#103| false)
(= |goto_symex::&92;guard#104| false)
(= |goto_symex::&92;guard#105| false)
(= |goto_symex::&92;guard#106| false)
(= |goto_symex::&92;guard#107| false)
(= |goto_symex::&92;guard#108| false)
(= |goto_symex::&92;guard#109| false)
(= |goto_symex::&92;guard#110| false)
(= |goto_symex::&92;guard#111| false)
(= |goto_symex::&92;guard#112| false)
(= |goto_symex::&92;guard#113| false)
(= |goto_symex::&92;guard#114| false)
(= |goto_symex::&92;guard#115| false)
(= |goto_symex::&92;guard#116| false)
(= |goto_symex::&92;guard#117| false)
(= |goto_symex::&92;guard#118| false)
(= |goto_symex::&92;guard#119| false)
(= |goto_symex::&92;guard#120| false)
(= |goto_symex::&92;guard#121| false)
(= |goto_symex::&92;guard#122| false)
(= |goto_symex::&92;guard#123| false)
(= |goto_symex::&92;guard#124| false)
(= |goto_symex::&92;guard#125| false)
(= |goto_symex::&92;guard#126| false)
(= |goto_symex::&92;guard#127| false)
(= |goto_symex::&92;guard#128| false)
(= |goto_symex::&92;guard#129| false)
(= |goto_symex::&92;guard#130| false)
(= |goto_symex::&92;guard#131| false)
(= |goto_symex::&92;guard#132| false)
(= |goto_symex::&92;guard#133| false)
(= |goto_symex::&92;guard#134| false)
(= |goto_symex::&92;guard#135| false)
(= |goto_symex::&92;guard#136| false)
(= |goto_symex::&92;guard#137| false)
(= |goto_symex::&92;guard#138| false)
(= |goto_symex::&92;guard#139| false)
(= |goto_symex::&92;guard#140| false)
(= |goto_symex::&92;guard#141| false)
(= |goto_symex::&92;guard#142| false)
(= |goto_symex::&92;guard#143| false)
(= |goto_symex::&92;guard#144| false)
(= |goto_symex::&92;guard#145| false)
(= |goto_symex::&92;guard#146| false)
(= |goto_symex::&92;guard#147| false)
(= |goto_symex::&92;guard#148| false)
(= |goto_symex::&92;guard#149| false)
(= |goto_symex::&92;guard#150| false)
(= |goto_symex::&92;guard#151| false)
(= |goto_symex::&92;guard#152| false)
(= |goto_symex::&92;guard#153| false)
(= |goto_symex::&92;guard#154| false)
(= |goto_symex::&92;guard#155| false)
(= |goto_symex::&92;guard#156| false)
(= |goto_symex::&92;guard#157| false)
(= |goto_symex::&92;guard#158| false)
(= |goto_symex::&92;guard#159| false)
(= |goto_symex::&92;guard#160| false)
(= |goto_symex::&92;guard#161| false)
(= |goto_symex::&92;guard#162| false)
(= |goto_symex::&92;guard#163| false)
(= |goto_symex::&92;guard#164| false)
(= |goto_symex::&92;guard#165| false)
(= |goto_symex::&92;guard#166| false)
(= |goto_symex::&92;guard#167| false)
(= |goto_symex::&92;guard#168| false)
(= |goto_symex::&92;guard#169| false)
(= |goto_symex::&92;guard#170| false)
(= |goto_symex::&92;guard#171| false)
(= |goto_symex::&92;guard#172| false)
(= |goto_symex::&92;guard#173| false)
(= |goto_symex::&92;guard#174| false)
(= |goto_symex::&92;guard#175| false)
(= |goto_symex::&92;guard#176| false)
(= |goto_symex::&92;guard#177| false)
(= |goto_symex::&92;guard#178| false)
(= |goto_symex::&92;guard#179| false)
(= |goto_symex::&92;guard#180| false)
(= |goto_symex::&92;guard#181| false)
(= |goto_symex::&92;guard#182| false)
(= |goto_symex::&92;guard#183| false)
(= |goto_symex::&92;guard#184| false)
(= |goto_symex::&92;guard#185| false)
(= |goto_symex::&92;guard#186| false)
(= |goto_symex::&92;guard#187| false)
(= |goto_symex::&92;guard#188| false)
(= |goto_symex::&92;guard#189| false)
(= |goto_symex::&92;guard#190| false)
(= |goto_symex::&92;guard#191| false)
(= |goto_symex::&92;guard#192| false)
(= |goto_symex::&92;guard#193| false)
(= |goto_symex::&92;guard#194| false)
(= |goto_symex::&92;guard#195| false)
(= |goto_symex::&92;guard#196| false)
(= |goto_symex::&92;guard#197| false)
(= |goto_symex::&92;guard#198| false)
(= |goto_symex::&92;guard#199| false)
(= |goto_symex::&92;guard#200| false)
(= |goto_symex::&92;guard#201| false)
(= |goto_symex::&92;guard#202| false)
(= |goto_symex::&92;guard#203| false)
(= |goto_symex::&92;guard#204| false)
(= |goto_symex::&92;guard#205| false)
(= |goto_symex::&92;guard#206| false)
(= |goto_symex::&92;guard#207| false)
(= |goto_symex::&92;guard#208| false)
(= |goto_symex::&92;guard#209| false)
(= |goto_symex::&92;guard#210| false)
(= |goto_symex::&92;guard#211| false)
(= |goto_symex::&92;guard#212| false)
(= |goto_symex::&92;guard#213| false)
(= |goto_symex::&92;guard#214| false)
(= |goto_symex::&92;guard#215| false)
(= |goto_symex::&92;guard#216| false)
(= |goto_symex::&92;guard#217| false)
(= |goto_symex::&92;guard#218| false)
(= |goto_symex::&92;guard#219| false)
(= |goto_symex::&92;guard#220| false)
(= |goto_symex::&92;guard#221| false)
(= |goto_symex::&92;guard#222| false)
(= |goto_symex::&92;guard#223| false)
(= |goto_symex::&92;guard#224| false)
(= |goto_symex::&92;guard#225| false)
(= |goto_symex::&92;guard#226| false)
(= |goto_symex::&92;guard#227| false)
(= |goto_symex::&92;guard#228| false)
(= |goto_symex::&92;guard#229| false)
(= |goto_symex::&92;guard#230| false)
(= |goto_symex::&92;guard#231| false)
(= |goto_symex::&92;guard#232| false)
(= |goto_symex::&92;guard#233| false)
(= |goto_symex::&92;guard#234| false)
(= |goto_symex::&92;guard#235| false)
(= |goto_symex::&92;guard#236| false)
(= |goto_symex::&92;guard#237| false)
(= |goto_symex::&92;guard#238| false)
(= |goto_symex::&92;guard#239| false)
(= |goto_symex::&92;guard#240| false)
(= |goto_symex::&92;guard#241| false)
(= |goto_symex::&92;guard#242| false)
(= |goto_symex::&92;guard#243| false)
(= |goto_symex::&92;guard#244| false)
(= |goto_symex::&92;guard#245| false)
(= |goto_symex::&92;guard#246| false)
(= |goto_symex::&92;guard#247| false)
(= |goto_symex::&92;guard#248| false)
(= |goto_symex::&92;guard#249| false)
(= |goto_symex::&92;guard#250| false)
(= |goto_symex::&92;guard#251| false)
(= |goto_symex::&92;guard#252| false)
(= |goto_symex::&92;guard#253| false)
(= |goto_symex::&92;guard#254| false)
(= |goto_symex::&92;guard#255| false)
(= |goto_symex::&92;guard#256| false)
(= |goto_symex::&92;guard#257| false)
(= |goto_symex::&92;guard#258| false)
(= |goto_symex::&92;guard#259| false)
(= |goto_symex::&92;guard#260| false)
(= |goto_symex::&92;guard#261| false)
(= |goto_symex::&92;guard#262| false)
(= |goto_symex::&92;guard#263| false)
(= |goto_symex::&92;guard#264| false)
(= |goto_symex::&92;guard#265| false)
(= |goto_symex::&92;guard#266| false)
(= |goto_symex::&92;guard#267| false)
(= |goto_symex::&92;guard#268| false)
(= |goto_symex::&92;guard#269| false)
(= |goto_symex::&92;guard#270| false)
(= |goto_symex::&92;guard#271| false)
(= |goto_symex::&92;guard#272| false)
(= |goto_symex::&92;guard#273| false)
(= |goto_symex::&92;guard#274| false)
(= |goto_symex::&92;guard#275| false)
(= |goto_symex::&92;guard#276| false)
(= |goto_symex::&92;guard#277| false)
(= |goto_symex::&92;guard#278| false)
(= |goto_symex::&92;guard#279| false)
(= |goto_symex::&92;guard#280| false)
(= |goto_symex::&92;guard#281| false)
(= |goto_symex::&92;guard#282| false)
(= |goto_symex::&92;guard#283| false)
(= |goto_symex::&92;guard#284| false)
(= |goto_symex::&92;guard#285| false)
(= |goto_symex::&92;guard#286| false)
(= |goto_symex::&92;guard#287| false)
(= |goto_symex::&92;guard#288| false)
(= |goto_symex::&92;guard#289| false)
(= |goto_symex::&92;guard#290| false)
(= |goto_symex::&92;guard#291| false)
(= |goto_symex::&92;guard#292| false)
(= |goto_symex::&92;guard#293| false)
(= |goto_symex::&92;guard#294| false)
(= |goto_symex::&92;guard#295| false)
(= |goto_symex::&92;guard#296| false)
(= |goto_symex::&92;guard#297| false)
(= |goto_symex::&92;guard#298| false)
(= |goto_symex::&92;guard#299| false)
(= |goto_symex::&92;guard#300| false)
(= |goto_symex::&92;guard#301| false)
(= |goto_symex::&92;guard#302| false)
(= |goto_symex::&92;guard#303| false)
(= |goto_symex::&92;guard#304| false)
(= |goto_symex::&92;guard#305| false)
(= |goto_symex::&92;guard#306| false)
(= |goto_symex::&92;guard#307| false)
(= |goto_symex::&92;guard#308| false)
(= |goto_symex::&92;guard#309| false)
(= |goto_symex::&92;guard#310| false)
(= |goto_symex::&92;guard#311| false)
(= |goto_symex::&92;guard#312| false)
(= |goto_symex::&92;guard#313| false)
(= |goto_symex::&92;guard#314| false)
(= |goto_symex::&92;guard#315| false)
(= |goto_symex::&92;guard#316| false)
(= |goto_symex::&92;guard#317| false)
(= |goto_symex::&92;guard#318| false)
(= |goto_symex::&92;guard#319| false)
(= |goto_symex::&92;guard#320| false)
(= |goto_symex::&92;guard#321| false)
(= |goto_symex::&92;guard#322| false)
(= |goto_symex::&92;guard#323| false)
(= |goto_symex::&92;guard#324| false)
(= |goto_symex::&92;guard#325| false)
(= |goto_symex::&92;guard#326| false)
(= |goto_symex::&92;guard#327| false)
(= |goto_symex::&92;guard#328| false)
(= |goto_symex::&92;guard#329| false)
(= |goto_symex::&92;guard#330| false)
(= |goto_symex::&92;guard#331| false)
(= |goto_symex::&92;guard#332| false)
(= |goto_symex::&92;guard#333| false)
(= |goto_symex::&92;guard#334| false)
(= |goto_symex::&92;guard#335| false)
(= |goto_symex::&92;guard#336| false)
(= |goto_symex::&92;guard#337| false)
(= |goto_symex::&92;guard#338| false)
(= |goto_symex::&92;guard#339| false)
(= |goto_symex::&92;guard#340| false)
(= |goto_symex::&92;guard#341| false)
(= |goto_symex::&92;guard#342| false)
(= |goto_symex::&92;guard#343| false)
(= |goto_symex::&92;guard#344| false)
(= |goto_symex::&92;guard#345| false)
(= |goto_symex::&92;guard#346| false)
(= |goto_symex::&92;guard#347| false)
(= |goto_symex::&92;guard#348| false)
(= |goto_symex::&92;guard#349| false)
(= |goto_symex::&92;guard#350| false)
(= |goto_symex::&92;guard#351| false)
(= |goto_symex::&92;guard#352| false)
(= |goto_symex::&92;guard#353| false)
(= |goto_symex::&92;guard#354| false)
(= |goto_symex::&92;guard#355| false)
(= |goto_symex::&92;guard#356| false)
(= |goto_symex::&92;guard#357| false)
(= |goto_symex::&92;guard#358| false)
(= |goto_symex::&92;guard#359| false)
(= |goto_symex::&92;guard#360| false)
(= |goto_symex::&92;guard#361| false)
(= |goto_symex::&92;guard#362| false)
(= |goto_symex::&92;guard#363| false)
(= |goto_symex::&92;guard#364| false)
(= |goto_symex::&92;guard#365| false)
(= |goto_symex::&92;guard#366| false)
(= |goto_symex::&92;guard#367| false)
(= |goto_symex::&92;guard#368| false)
(= |goto_symex::&92;guard#369| false)
(= |goto_symex::&92;guard#370| false)
(= |goto_symex::&92;guard#371| false)
(= |goto_symex::&92;guard#372| false)
(= |goto_symex::&92;guard#373| false)
(= |goto_symex::&92;guard#374| false)
(= |goto_symex::&92;guard#375| false)
(= |goto_symex::&92;guard#376| false)
(= |goto_symex::&92;guard#377| false)
(= |goto_symex::&92;guard#378| false)
(= |goto_symex::&92;guard#379| false)
(= |goto_symex::&92;guard#380| false)
(= |goto_symex::&92;guard#381| false)
(= |goto_symex::&92;guard#382| false)
(= |goto_symex::&92;guard#383| false)
(= |goto_symex::&92;guard#384| false)
(= |goto_symex::&92;guard#385| false)
(= |goto_symex::&92;guard#386| false)
(= |goto_symex::&92;guard#387| false)
(= |goto_symex::&92;guard#388| false)
(= |goto_symex::&92;guard#389| false)
(= |goto_symex::&92;guard#390| false)
(= |goto_symex::&92;guard#391| false)
(= |goto_symex::&92;guard#392| false)
(= |goto_symex::&92;guard#393| false)
(= |goto_symex::&92;guard#394| false)
(= |goto_symex::&92;guard#395| false)
(= |goto_symex::&92;guard#396| false)
(= |goto_symex::&92;guard#397| false)
(= |goto_symex::&92;guard#398| false)
(= |goto_symex::&92;guard#399| false)
(= |goto_symex::&92;guard#400| false)
(= |goto_symex::&92;guard#401| false)
(= |goto_symex::&92;guard#402| false)
(= |goto_symex::&92;guard#403| false)
(= |goto_symex::&92;guard#404| false)
(= |goto_symex::&92;guard#405| false)
(= |goto_symex::&92;guard#406| false)
(= |goto_symex::&92;guard#407| false)
(= |goto_symex::&92;guard#408| false)
(= |goto_symex::&92;guard#409| false)
(= |goto_symex::&92;guard#410| false)
(= |goto_symex::&92;guard#411| false)
(= |goto_symex::&92;guard#412| false)
(= |goto_symex::&92;guard#413| false)
(= |goto_symex::&92;guard#414| false)
(= |goto_symex::&92;guard#415| false)
(= |goto_symex::&92;guard#416| false)
(= |goto_symex::&92;guard#417| false)
(= |goto_symex::&92;guard#418| false)
(= |goto_symex::&92;guard#419| false)
(= |goto_symex::&92;guard#420| false)
(= |goto_symex::&92;guard#421| false)
(= |goto_symex::&92;guard#422| false)
(= |goto_symex::&92;guard#423| false)
(= |goto_symex::&92;guard#424| false)
(= |goto_symex::&92;guard#425| false)
(= |goto_symex::&92;guard#426| false)
(= |goto_symex::&92;guard#427| false)
(= |goto_symex::&92;guard#428| false)
(= |goto_symex::&92;guard#429| false)
(= |goto_symex::&92;guard#430| false)
(= |goto_symex::&92;guard#431| false)
(= |goto_symex::&92;guard#432| false)
(= |goto_symex::&92;guard#433| false)
(= |goto_symex::&92;guard#434| false)
(= |goto_symex::&92;guard#435| false)
(= |goto_symex::&92;guard#436| false)
(= |goto_symex::&92;guard#437| false)
(= |goto_symex::&92;guard#438| false)
(= |goto_symex::&92;guard#439| false)
(= |goto_symex::&92;guard#440| false)
(= |goto_symex::&92;guard#441| false)
(= |goto_symex::&92;guard#442| false)
(= |goto_symex::&92;guard#443| false)
(= |goto_symex::&92;guard#444| false)
(= |goto_symex::&92;guard#445| false)
(= |goto_symex::&92;guard#446| false)
(= |goto_symex::&92;guard#447| false)
(= |goto_symex::&92;guard#448| false)
(= |goto_symex::&92;guard#449| false)
(= |goto_symex::&92;guard#450| false)
(= |goto_symex::&92;guard#451| false)
(= |goto_symex::&92;guard#452| false)
(= |goto_symex::&92;guard#453| false)
(= |goto_symex::&92;guard#454| false)
(= |goto_symex::&92;guard#455| false)
(= |goto_symex::&92;guard#456| false)
(= |goto_symex::&92;guard#457| false)
(= |goto_symex::&92;guard#458| false)
(= |goto_symex::&92;guard#459| false)
(= |goto_symex::&92;guard#460| false)
(= |goto_symex::&92;guard#461| false)
(= |goto_symex::&92;guard#462| false)
(= |goto_symex::&92;guard#463| false)
(= |goto_symex::&92;guard#464| false)
(= |goto_symex::&92;guard#465| false)
(= |goto_symex::&92;guard#466| false)
(= |goto_symex::&92;guard#467| false)
(= |goto_symex::&92;guard#468| false)
(= |goto_symex::&92;guard#469| false)
(= |goto_symex::&92;guard#470| false)
(= |goto_symex::&92;guard#471| false)
(= |goto_symex::&92;guard#472| false)
(= |goto_symex::&92;guard#473| false)
(= |goto_symex::&92;guard#474| false)
(= |goto_symex::&92;guard#475| false)
(= |goto_symex::&92;guard#476| false)
(= |goto_symex::&92;guard#477| false)
(= |goto_symex::&92;guard#478| false)
(= |goto_symex::&92;guard#479| false)
(= |goto_symex::&92;guard#480| false)
(= |goto_symex::&92;guard#481| false)
(= |goto_symex::&92;guard#482| false)
(= |goto_symex::&92;guard#483| false)
(= |goto_symex::&92;guard#484| false)
(= |goto_symex::&92;guard#485| false)
(= |goto_symex::&92;guard#486| false)
(= |goto_symex::&92;guard#487| false)
(= |goto_symex::&92;guard#488| false)
(= |goto_symex::&92;guard#489| false)
(= |goto_symex::&92;guard#490| false)
(= |goto_symex::&92;guard#491| false)
(= |goto_symex::&92;guard#492| false)
(= |goto_symex::&92;guard#493| false)
(= |goto_symex::&92;guard#494| false)
(= |goto_symex::&92;guard#495| false)
(= |goto_symex::&92;guard#496| false)
(= |goto_symex::&92;guard#497| false)
(= |goto_symex::&92;guard#498| false)
(= |goto_symex::&92;guard#499| false)
(= |goto_symex::&92;guard#500| false)
(= |goto_symex::&92;guard#501| false)
(= |goto_symex::&92;guard#502| false)
(= |goto_symex::&92;guard#503| false)
(= |goto_symex::&92;guard#504| false)
(= |goto_symex::&92;guard#505| false)
(= |goto_symex::&92;guard#506| false)
(= |goto_symex::&92;guard#507| false)
(= |goto_symex::&92;guard#508| false)
(= |goto_symex::&92;guard#509| false)
(= |goto_symex::&92;guard#510| false)
(= |goto_symex::&92;guard#511| false)
(= |goto_symex::&92;guard#512| false)
(= |goto_symex::&92;guard#513| false)
(= |goto_symex::&92;guard#514| false)
(= |goto_symex::&92;guard#515| false)
(= |goto_symex::&92;guard#516| false)
(= |goto_symex::&92;guard#517| false)
(= |goto_symex::&92;guard#518| false)
(= |goto_symex::&92;guard#519| false)
(= |goto_symex::&92;guard#520| false)
(= |goto_symex::&92;guard#521| false)
(= |goto_symex::&92;guard#522| false)
(= |goto_symex::&92;guard#523| false)
(= |goto_symex::&92;guard#524| false)
(= |goto_symex::&92;guard#525| false)
(= |goto_symex::&92;guard#526| false)
(= |goto_symex::&92;guard#527| false)
(= |goto_symex::&92;guard#528| false)
(= |goto_symex::&92;guard#529| false)
(= |goto_symex::&92;guard#530| false)
(= |goto_symex::&92;guard#531| false)
(= |goto_symex::&92;guard#532| false)
(= |goto_symex::&92;guard#533| false)
(= |goto_symex::&92;guard#534| false)
(= |goto_symex::&92;guard#535| false)
(= |goto_symex::&92;guard#536| false)
(= |goto_symex::&92;guard#537| false)
(= |goto_symex::&92;guard#538| false)
(= |goto_symex::&92;guard#539| false)
(= |goto_symex::&92;guard#540| false)
(= |goto_symex::&92;guard#541| false)
(= |goto_symex::&92;guard#542| false)
(= |goto_symex::&92;guard#543| false)
(= |goto_symex::&92;guard#544| false)
(= |goto_symex::&92;guard#545| false)
(= |goto_symex::&92;guard#546| false)
(= |goto_symex::&92;guard#547| false)
(= |goto_symex::&92;guard#548| false)
(= |goto_symex::&92;guard#549| false)
(= |goto_symex::&92;guard#550| false)
(= |goto_symex::&92;guard#551| false)
(= |goto_symex::&92;guard#552| false)
(= |goto_symex::&92;guard#553| false)
(= |goto_symex::&92;guard#554| false)
(= |goto_symex::&92;guard#555| false)
(= |goto_symex::&92;guard#556| false)
(= |goto_symex::&92;guard#557| false)
(= |goto_symex::&92;guard#558| false)
(= |goto_symex::&92;guard#559| false)
(= |goto_symex::&92;guard#560| false)
(= |goto_symex::&92;guard#561| false)
(= |goto_symex::&92;guard#562| false)
(= |goto_symex::&92;guard#563| false)
(= |goto_symex::&92;guard#564| false)
(= |goto_symex::&92;guard#565| false)
(= |goto_symex::&92;guard#566| false)
(= |goto_symex::&92;guard#567| false)
(= |goto_symex::&92;guard#568| false)
(= |goto_symex::&92;guard#569| false)
(= |goto_symex::&92;guard#570| false)
(= |goto_symex::&92;guard#571| false)
(= |goto_symex::&92;guard#572| false)
(= |goto_symex::&92;guard#573| false)
(= |goto_symex::&92;guard#574| false)
(= |goto_symex::&92;guard#575| false)
(= |goto_symex::&92;guard#576| false)
(= |goto_symex::&92;guard#577| false)
(= |goto_symex::&92;guard#578| false)
(= |goto_symex::&92;guard#579| false)
(= |goto_symex::&92;guard#580| false)
(= |goto_symex::&92;guard#581| false)
(= |goto_symex::&92;guard#582| false)
(= |goto_symex::&92;guard#583| false)
(= |goto_symex::&92;guard#584| false)
(= |goto_symex::&92;guard#585| false)
(= |goto_symex::&92;guard#586| false)
(= |goto_symex::&92;guard#587| false)
(= |goto_symex::&92;guard#588| false)
(= |goto_symex::&92;guard#589| false)
(= |goto_symex::&92;guard#590| false)
(= |goto_symex::&92;guard#591| false)
(= |goto_symex::&92;guard#592| false)
(= |goto_symex::&92;guard#593| false)
(= |goto_symex::&92;guard#594| false)
(= |goto_symex::&92;guard#595| false)
(= |goto_symex::&92;guard#596| false)
(= |goto_symex::&92;guard#597| false)
(= |goto_symex::&92;guard#598| false)
(= |goto_symex::&92;guard#599| false)
(= |goto_symex::&92;guard#600| false)
(= |goto_symex::&92;guard#601| false)
(= |goto_symex::&92;guard#602| false)
(= |goto_symex::&92;guard#603| false)
(= |goto_symex::&92;guard#604| false)
(= |goto_symex::&92;guard#605| false)
(= |goto_symex::&92;guard#606| false)
(= |goto_symex::&92;guard#607| false)
(= |goto_symex::&92;guard#608| false)
(= |goto_symex::&92;guard#609| false)
(= |goto_symex::&92;guard#610| false)
(= |goto_symex::&92;guard#611| false)
(= |goto_symex::&92;guard#612| false)
(= |goto_symex::&92;guard#613| false)
(= |goto_symex::&92;guard#614| false)
(= |goto_symex::&92;guard#615| false)
(= |goto_symex::&92;guard#616| false)
(= |goto_symex::&92;guard#617| false)
(= |goto_symex::&92;guard#618| false)
(= |goto_symex::&92;guard#619| false)
(= |goto_symex::&92;guard#620| false)
(= |goto_symex::&92;guard#621| false)
(= |goto_symex::&92;guard#622| false)
(= |goto_symex::&92;guard#623| false)
(= |goto_symex::&92;guard#624| false)
(= |goto_symex::&92;guard#625| false)
(= |goto_symex::&92;guard#626| true)
(= |goto_symex::&92;guard#627| false)
(= |goto_symex::&92;guard#628| false)
(= |goto_symex::&92;guard#629| false)
(= |goto_symex::&92;guard#630| false)
(= |goto_symex::&92;guard#631| false)
(= |goto_symex::&92;guard#632| true)
(= |goto_symex::&92;guard#633| false)
(= |goto_symex::&92;guard#634| false)
(= |goto_symex::&92;guard#635| false)
(= |goto_symex::&92;guard#636| false)
(= |goto_symex::&92;guard#637| false)
(= |goto_symex::&92;guard#638| true)
(= |goto_symex::&92;guard#639| false)
(= |goto_symex::&92;guard#640| false)
(= |goto_symex::&92;guard#641| false)
(= |goto_symex::&92;guard#642| false)
(= |goto_symex::&92;guard#643| false)
(= |goto_symex::&92;guard#644| true)
(= |goto_symex::&92;guard#645| false)
(= |goto_symex::&92;guard#646| false)
(= |goto_symex::&92;guard#647| false)
(= |goto_symex::&92;guard#648| false)
(= |goto_symex::&92;guard#649| false)
(= |goto_symex::&92;guard#650| true)
(= |goto_symex::&92;guard#651| false)
(= |goto_symex::&92;guard#652| false)
(= |goto_symex::&92;guard#653| false)
(= |goto_symex::&92;guard#654| false)
(= |goto_symex::&92;guard#655| false)
(= |goto_symex::&92;guard#656| false)
(= |goto_symex::&92;guard#657| true)
(= |goto_symex::&92;guard#658| false)
(= |goto_symex::&92;guard#659| false)
(= |goto_symex::&92;guard#660| false)
(= |goto_symex::&92;guard#661| false)
(= |goto_symex::&92;guard#662| false)
(= |goto_symex::&92;guard#663| true)
(= |goto_symex::&92;guard#664| false)
(= |goto_symex::&92;guard#665| false)
(= |goto_symex::&92;guard#666| false)
(= |goto_symex::&92;guard#667| false)
(= |goto_symex::&92;guard#668| false)
(= |goto_symex::&92;guard#669| true)
(= |goto_symex::&92;guard#670| false)
(= |goto_symex::&92;guard#671| false)
(= |goto_symex::&92;guard#672| false)
(= |goto_symex::&92;guard#673| false)
(= |goto_symex::&92;guard#674| false)
(= |goto_symex::&92;guard#675| true)
(= |goto_symex::&92;guard#676| false)
(= |goto_symex::&92;guard#677| false)
(= |goto_symex::&92;guard#678| false)
(= |goto_symex::&92;guard#679| false)
(= |goto_symex::&92;guard#680| false)
(= |goto_symex::&92;guard#681| true)
(= |goto_symex::&92;guard#682| false)
(= |goto_symex::&92;guard#683| false)
(= |goto_symex::&92;guard#684| false)
(= |goto_symex::&92;guard#685| false)
(= |goto_symex::&92;guard#686| false)
(= |goto_symex::&92;guard#687| false)
(= |goto_symex::&92;guard#688| true)
(= |goto_symex::&92;guard#689| false)
(= |goto_symex::&92;guard#690| false)
(= |goto_symex::&92;guard#691| false)
(= |goto_symex::&92;guard#692| false)
(= |goto_symex::&92;guard#693| false)
(= |goto_symex::&92;guard#694| true)
(= |goto_symex::&92;guard#695| false)
(= |goto_symex::&92;guard#696| false)
(= |goto_symex::&92;guard#697| false)
(= |goto_symex::&92;guard#698| false)
(= |goto_symex::&92;guard#699| false)
(= |goto_symex::&92;guard#700| true)
(= |goto_symex::&92;guard#701| false)
(= |goto_symex::&92;guard#702| false)
(= |goto_symex::&92;guard#703| false)
(= |goto_symex::&92;guard#704| false)
(= |goto_symex::&92;guard#705| false)
(= |goto_symex::&92;guard#706| true)
(= |goto_symex::&92;guard#707| false)
(= |goto_symex::&92;guard#708| false)
(= |goto_symex::&92;guard#709| false)
(= |goto_symex::&92;guard#710| false)
(= |goto_symex::&92;guard#711| false)
(= |goto_symex::&92;guard#712| true)
(= |goto_symex::&92;guard#713| false)
(= |goto_symex::&92;guard#714| false)
(= |goto_symex::&92;guard#715| false)
(= |goto_symex::&92;guard#716| false)
(= |goto_symex::&92;guard#717| false)
(= |goto_symex::&92;guard#718| false)
(= |goto_symex::&92;guard#719| true)
(= |goto_symex::&92;guard#720| false)
(= |goto_symex::&92;guard#721| false)
(= |goto_symex::&92;guard#722| false)
(= |goto_symex::&92;guard#723| false)
(= |goto_symex::&92;guard#724| false)
(= |goto_symex::&92;guard#725| true)
(= |goto_symex::&92;guard#726| false)
(= |goto_symex::&92;guard#727| false)
(= |goto_symex::&92;guard#728| false)
(= |goto_symex::&92;guard#729| false)
(= |goto_symex::&92;guard#730| false)
(= |goto_symex::&92;guard#731| true)
(= |goto_symex::&92;guard#732| false)
(= |goto_symex::&92;guard#733| false)
(= |goto_symex::&92;guard#734| false)
(= |goto_symex::&92;guard#735| false)
(= |goto_symex::&92;guard#736| false)
(= |goto_symex::&92;guard#737| true)
(= |goto_symex::&92;guard#738| false)
(= |goto_symex::&92;guard#739| false)
(= |goto_symex::&92;guard#740| false)
(= |goto_symex::&92;guard#741| false)
(= |goto_symex::&92;guard#742| false)
(= |goto_symex::&92;guard#743| true)
(= |goto_symex::&92;guard#744| false)
(= |goto_symex::&92;guard#745| false)
(= |goto_symex::&92;guard#746| false)
(= |goto_symex::&92;guard#747| false)
(= |goto_symex::&92;guard#748| false)
(= |goto_symex::&92;guard#749| false)
(= |goto_symex::&92;guard#750| true)
(= |goto_symex::&92;guard#751| false)
(= |goto_symex::&92;guard#752| false)
(= |goto_symex::&92;guard#753| false)
(= |goto_symex::&92;guard#754| false)
(= |goto_symex::&92;guard#755| false)
(= |goto_symex::&92;guard#756| true)
(= |goto_symex::&92;guard#757| false)
(= |goto_symex::&92;guard#758| false)
(= |goto_symex::&92;guard#759| false)
(= |goto_symex::&92;guard#760| false)
(= |goto_symex::&92;guard#761| false)
(= |goto_symex::&92;guard#762| true)
(= |goto_symex::&92;guard#763| false)
(= |goto_symex::&92;guard#764| false)
(= |goto_symex::&92;guard#765| false)
(= |goto_symex::&92;guard#766| false)
(= |goto_symex::&92;guard#767| false)
(= |goto_symex::&92;guard#768| true)
(= |goto_symex::&92;guard#769| false)
(= |goto_symex::&92;guard#770| false)
(= |goto_symex::&92;guard#771| false)
(= |goto_symex::&92;guard#772| false)
(= |goto_symex::&92;guard#773| false)
(= |goto_symex::&92;guard#774| true)
(= |goto_symex::&92;guard#775| false)
(= |goto_symex::&92;guard#776| false)
(= |goto_symex::&92;guard#777| false)
(= |goto_symex::&92;guard#778| false)
(= |goto_symex::&92;guard#779| false)
(= |goto_symex::&92;guard#780| true)
(= |memory_model::choice_rf_1_0_0_8_T_0| false)
(= |memory_model::choice_rf_1_0_2_1_T_1| true)
(= |memory_model::choice_rf_1_0_3_1_T_2| false)
(= |memory_model::choice_rf_1_0_4_1_T_3| false)
(= |memory_model::choice_rf_1_0_5_1_T_4| false)
(= |memory_model::choice_rf_2_0_0_8_T_5| true)
(= |memory_model::choice_rf_2_0_1_1_T_6| false)
(= |memory_model::choice_rf_2_0_3_1_T_7| false)
(= |memory_model::choice_rf_2_0_4_1_T_8| false)
(= |memory_model::choice_rf_2_0_5_1_T_9| false)
(= |memory_model::choice_rf_3_0_0_8_T_10| false)
(= |memory_model::choice_rf_3_0_1_1_T_11| true)
(= |memory_model::choice_rf_3_0_2_1_T_12| false)
(= |memory_model::choice_rf_3_0_4_1_T_13| false)
(= |memory_model::choice_rf_3_0_5_1_T_14| false)
(= |memory_model::choice_rf_4_0_0_8_T_15| false)
(= |memory_model::choice_rf_4_0_1_1_T_16| false)
(= |memory_model::choice_rf_4_0_2_1_T_17| false)
(= |memory_model::choice_rf_4_0_3_1_T_18| true)
(= |memory_model::choice_rf_4_0_5_1_T_19| false)
(= |memory_model::choice_rf_5_0_0_8_T_20| false)
(= |memory_model::choice_rf_5_0_1_1_T_21| false)
(= |memory_model::choice_rf_5_0_2_1_T_22| false)
(= |memory_model::choice_rf_5_0_3_1_T_23| false)
(= |memory_model::choice_rf_5_0_4_1_T_24| false)
(= |memory_model::choice_rf_0_13_0_6_T_25| false)
(= |memory_model::choice_rf_0_13_0_10_T_26| true)
(= |memory_model::choice_rf_0_17_0_6_T_27| false)
(= |memory_model::choice_rf_0_17_0_10_T_28| false)
(= |memory_model::choice_rf_0_17_0_14_T_29| true)
(= |memory_model::choice_rf_0_21_0_6_T_30| false)
(= |memory_model::choice_rf_0_21_0_10_T_31| false)
(= |memory_model::choice_rf_0_21_0_14_T_32| false)
(= |memory_model::choice_rf_0_21_0_18_T_33| true)
(= |memory_model::choice_rf_0_25_0_6_T_34| false)
(= |memory_model::choice_rf_0_25_0_10_T_35| false)
(= |memory_model::choice_rf_0_25_0_14_T_36| false)
(= |memory_model::choice_rf_0_25_0_18_T_37| false)
(= |memory_model::choice_rf_0_25_0_22_T_38| true)
(= |memory_model::choice_ws-ext_0_8_1_1_T_39| true)
(= |memory_model::choice_ws-ext_0_8_2_1_T_40| true)
(= |memory_model::choice_ws-ext_0_8_3_1_T_41| true)
(= |memory_model::choice_ws-ext_0_8_4_1_T_42| true)
(= |memory_model::choice_ws-ext_0_8_5_1_T_43| true)
(= |memory_model::choice_ws-ext_1_1_2_1_T_44| false)
(= |memory_model::choice_ws-ext_1_1_3_1_T_45| true)
(= |memory_model::choice_ws-ext_1_1_4_1_T_46| true)
(= |memory_model::choice_ws-ext_1_1_5_1_T_47| true)
(= |memory_model::choice_ws-ext_2_1_3_1_T_48| true)
(= |memory_model::choice_ws-ext_2_1_4_1_T_49| true)
(= |memory_model::choice_ws-ext_2_1_5_1_T_50| true)
(= |memory_model::choice_ws-ext_3_1_4_1_T_51| true)
(= |memory_model::choice_ws-ext_3_1_5_1_T_52| true)
(= |memory_model::choice_ws-ext_4_1_5_1_T_53| true)
(= |__CPROVER_next_thread_id#3| #b00000000000000000000000000000001)
(= |__CPROVER_next_thread_id#6| #b00000000000000000000000000000010)
(= |__CPROVER_next_thread_id#9| #b00000000000000000000000000000011)
(= |__CPROVER_next_thread_id#12| #b00000000000000000000000000000100)
(= |pthread_create::1::this_thread_id!1@0#0| #b10000000000000000000000000000000)
(= |nondet_symex::nondet0| #b00000000000000000000000000000000)
(= |nondet_symex::nondet1| #b00000000000000000000000000000000)
(= |nondet_symex::nondet2| #b00000000000000000000000000000000)
(= |pthread_create::1::this_thread_id!2@0#0| #b00000000000000000000000000000000)
(= |nondet_symex::nondet3| #b00000000000000000000000000000000)
(= |nondet_symex::nondet4| #b00000000000000000000000000000000)
(= |nondet_symex::nondet5| #b00000000000000000000000000000000)
(= |pthread_create::1::this_thread_id!3@0#0| #b10000000000000000000000000000000)
(= |nondet_symex::nondet6| #b00000000000000000000000000000000)
(= |nondet_symex::nondet7| #b00000000000000000000000000000000)
(= |nondet_symex::nondet8| #b00000000000000000000000000000000)
(= |pthread_create::1::this_thread_id!4@0#0| #b00000000000000000000000000000000)
(= |nondet_symex::nondet9| #b00000000000000000000000000000000)
(= |nondet_symex::nondet10| #b00000000000000000000000000000000)
(= |nondet_symex::nondet11| #b00000000000000000000000000000000)
(= |pthread_create::1::this_thread_id!5@0#0| #b00000000000000000000000000000000)
(= |nondet_symex::nondet12| #b00000000000000000000000000000000)
(= |nondet_symex::nondet13| #b10000000000000000000000000000000)
(= |nondet_symex::nondet14| #b00000000000000000000000000000000)
(= |__CPROVER_threads_exited#1$wclk$8| #b001001)
(= |__CPROVER_threads_exited#2$rclk$8| #b100011)
(= |__CPROVER_threads_exited#5$wclk$8| #b100010)
(= |__CPROVER_threads_exited#7$wclk$8| #b110001)
(= |__CPROVER_threads_exited#9$wclk$8| #b110011)
(= |__CPROVER_threads_exited#11$wclk$8| #b111011)
(= |__CPROVER_threads_exited#4$rclk$8| #b100001)
(= |__CPROVER_threads_exited#3$wclk$8| #b100100)
(= |__CPROVER_threads_exited#6$rclk$8| #b110000)
(= |__CPROVER_threads_exited#8$rclk$8| #b110010)
(= |__CPROVER_threads_exited#10$rclk$8| #b111000)
(= t1$12$spwnclk$8 #b001110)
(= t1$16$spwnclk$8 #b011110)
(= t1$20$spwnclk$8 #b100001)
(= t1$24$spwnclk$8 #b101000)
(= t1$28$spwnclk$8 #b110010)
(= |__CPROVER_dead_object#1$wclk$8| #b000000)
(= |__CPROVER_deallocated#1$wclk$8| #b000010)
(= |__CPROVER_malloc_is_new_array#1$wclk$8| #b000011)
(= |__CPROVER_malloc_object#1$wclk$8| #b000100)
(= |__CPROVER_malloc_size#1$wclk$8| #b000101)
(= |__CPROVER_memory_leak#1$wclk$8| #b000110)
(= |__CPROVER_next_thread_id#1$wclk$8| #b000111)
(= |__CPROVER_pipe_count#1$wclk$8| #b001000)
(= |main::1::t!0@1#1$wclk$8| #b001010)
(= |__CPROVER_next_thread_id#2$wclk$8| #b001011)
(= |main::1::t!0@1#2$wclk$8| #b001100)
(= |__CPROVER_next_thread_id#3$rclk$8| #b001111)
(= |__CPROVER_next_thread_id#5$wclk$8| #b001111)
(= |main::1::t!0@1#3$wclk$8| #b011100)
(= |__CPROVER_next_thread_id#6$rclk$8| #b011111)
(= |__CPROVER_next_thread_id#8$wclk$8| #b011111)
(= |main::1::t!0@1#4$wclk$8| #b100000)
(= |__CPROVER_next_thread_id#9$rclk$8| #b100010)
(= |__CPROVER_next_thread_id#11$wclk$8| #b100010)
(= |main::1::t!0@1#5$wclk$8| #b100011)
(= |__CPROVER_next_thread_id#12$rclk$8| #b110000)
(= |__CPROVER_next_thread_id#14$wclk$8| #b110000)
(= |main::1::t!0@1#6$wclk$8| #b110001)
(= array_of.0 @fun_8)
(= |__CPROVER_threads_exited#2| @fun_7)
(= |__CPROVER_threads_exited#4| @fun_8)
(= |__CPROVER_threads_exited#6| @fun_7)
(= |__CPROVER_threads_exited#8| @fun_7)
(= |__CPROVER_threads_exited#10| @fun_10)
(function @fun_8
 (type (Array (_ BitVec 32) (_ BitVec 1)))
 (= (@fun_8 #b10000000000000000000000000000000) #b1)
 (default #b0))
(function @fun_7
 (type (Array (_ BitVec 32) (_ BitVec 1)))
 (= (@fun_7 #b00000000000000000000000000000000) #b1)
 (= (@fun_7 #b10000000000000000000000000000000) #b1)
 (default #b0))
(function @fun_10
 (type (Array (_ BitVec 32) (_ BitVec 1)))
 (= (@fun_10 #b00000000000000000000000000000000) #b0)
 (default #b1))

real	0m0.141s
user	0m0.134s
sys	0m0.007s
State: AC Run_time: 0.14338421821594238